<instance format="XCSP3" type="CSP">
  <variables>
    <array id="x" size="[3][3]"> 1..3 </array>
  </variables>
  <constraints>
    <group>  
      <allDifferent> %0 %1 %2 </allDifferent>
      <args> x[0][0] x[0][1] x[0][2] </args>
      <args> x[1][0] x[1][1] x[1][2] </args>
      <args> x[2][0] x[2][1] x[2][2] </args>
      <args> x[0][0] x[1][0] x[2][0] </args>
      <args> x[0][1] x[1][1] x[2][1] </args>
      <args> x[0][2] x[1][2] x[2][2] </args>
    </group>
  </constraints>
</instance>
